p cnf 186 461
-4 -6 0
5 -6 0
4 -5 6 0
-4 -7 0
-5 -7 0
4 5 7 0
-4 -9 0
-5 -9 0
8 -9 0
4 5 -8 9 0
-4 -10 0
-5 -10 0
-8 -10 0
4 5 8 10 0
-4 -12 0
-5 -12 0
-8 -12 0
11 -12 0
4 5 8 -11 12 0
-4 -13 0
-5 -13 0
-8 -13 0
-11 -13 0
4 5 8 11 13 0
-4 -15 0
-5 -15 0
-8 -15 0
-11 -15 0
14 -15 0
4 5 8 11 -14 15 0
-4 -16 0
-5 -16 0
-8 -16 0
-11 -16 0
-14 -16 0
4 5 8 11 14 16 0
-4 -18 0
-5 -18 0
-8 -18 0
-11 -18 0
-14 -18 0
17 -18 0
4 5 8 11 14 -17 18 0
-4 -19 0
-5 -19 0
-8 -19 0
-11 -19 0
-14 -19 0
-17 -19 0
4 5 8 11 14 17 19 0
-4 -21 0
-5 -21 0
-8 -21 0
-11 -21 0
-14 -21 0
-17 -21 0
20 -21 0
4 5 8 11 14 17 -20 21 0
-4 -22 0
-5 -22 0
-8 -22 0
-11 -22 0
-14 -22 0
-17 -22 0
-20 -22 0
4 5 8 11 14 17 20 22 0
23 0
-24 -56 0
-25 -56 0
-26 -56 0
-27 -56 0
-28 -56 0
-29 -56 0
-30 -56 0
-31 -56 0
-32 -56 0
-33 -56 0
-34 -56 0
-35 -56 0
-36 -56 0
-37 -56 0
-38 -56 0
-39 -56 0
-40 -56 0
-41 -56 0
-42 -56 0
-43 -56 0
-44 -56 0
-45 -56 0
-46 -56 0
-47 -56 0
-48 -56 0
-49 -56 0
-50 -56 0
-51 -56 0
-52 -56 0
-53 -56 0
-54 -56 0
-55 -56 0
24 25 26 27 28 29 30 31 32 33 34 35 36 37 38 39 40 41 42 43 44 45 46 47 48 49 50 51 52 53 54 55 56 0
-4 -56 -57 0
4 56 -57 0
-4 56 57 0
4 -56 57 0
-57 0
24 -58 0
-25 -58 0
-26 -58 0
-27 -58 0
-28 -58 0
-29 -58 0
-30 -58 0
-31 -58 0
-32 -58 0
-33 -58 0
-34 -58 0
-35 -58 0
-36 -58 0
-37 -58 0
-38 -58 0
-39 -58 0
-40 -58 0
-41 -58 0
-42 -58 0
-43 -58 0
-44 -58 0
-45 -58 0
-46 -58 0
-47 -58 0
-48 -58 0
-49 -58 0
-50 -58 0
-51 -58 0
-52 -58 0
-53 -58 0
-54 -58 0
-55 -58 0
-24 25 26 27 28 29 30 31 32 33 34 35 36 37 38 39 40 41 42 43 44 45 46 47 48 49 50 51 52 53 54 55 58 0
-5 -58 -59 0
5 58 -59 0
-5 58 59 0
5 -58 59 0
-59 0
-24 -60 0
25 -60 0
-26 -60 0
-27 -60 0
-28 -60 0
-29 -60 0
-30 -60 0
-31 -60 0
-32 -60 0
-33 -60 0
-34 -60 0
-35 -60 0
-36 -60 0
-37 -60 0
-38 -60 0
-39 -60 0
-40 -60 0
-41 -60 0
-42 -60 0
-43 -60 0
-44 -60 0
-45 -60 0
-46 -60 0
-47 -60 0
-48 -60 0
-49 -60 0
-50 -60 0
-51 -60 0
-52 -60 0
-53 -60 0
-54 -60 0
-55 -60 0
24 -25 26 27 28 29 30 31 32 33 34 35 36 37 38 39 40 41 42 43 44 45 46 47 48 49 50 51 52 53 54 55 60 0
-8 -60 -61 0
8 60 -61 0
-8 60 61 0
8 -60 61 0
-61 0
24 -62 0
25 -62 0
-26 -62 0
-27 -62 0
-28 -62 0
-29 -62 0
-30 -62 0
-31 -62 0
-32 -62 0
-33 -62 0
-34 -62 0
-35 -62 0
-36 -62 0
-37 -62 0
-38 -62 0
-39 -62 0
-40 -62 0
-41 -62 0
-42 -62 0
-43 -62 0
-44 -62 0
-45 -62 0
-46 -62 0
-47 -62 0
-48 -62 0
-49 -62 0
-50 -62 0
-51 -62 0
-52 -62 0
-53 -62 0
-54 -62 0
-55 -62 0
-24 -25 26 27 28 29 30 31 32 33 34 35 36 37 38 39 40 41 42 43 44 45 46 47 48 49 50 51 52 53 54 55 62 0
-11 -62 -63 0
11 62 -63 0
-11 62 63 0
11 -62 63 0
-63 0
-24 -64 0
-25 -64 0
26 -64 0
-27 -64 0
-28 -64 0
-29 -64 0
-30 -64 0
-31 -64 0
-32 -64 0
-33 -64 0
-34 -64 0
-35 -64 0
-36 -64 0
-37 -64 0
-38 -64 0
-39 -64 0
-40 -64 0
-41 -64 0
-42 -64 0
-43 -64 0
-44 -64 0
-45 -64 0
-46 -64 0
-47 -64 0
-48 -64 0
-49 -64 0
-50 -64 0
-51 -64 0
-52 -64 0
-53 -64 0
-54 -64 0
-55 -64 0
24 25 -26 27 28 29 30 31 32 33 34 35 36 37 38 39 40 41 42 43 44 45 46 47 48 49 50 51 52 53 54 55 64 0
-14 -64 -65 0
14 64 -65 0
-14 64 65 0
14 -64 65 0
-65 0
24 -66 0
-25 -66 0
26 -66 0
-27 -66 0
-28 -66 0
-29 -66 0
-30 -66 0
-31 -66 0
-32 -66 0
-33 -66 0
-34 -66 0
-35 -66 0
-36 -66 0
-37 -66 0
-38 -66 0
-39 -66 0
-40 -66 0
-41 -66 0
-42 -66 0
-43 -66 0
-44 -66 0
-45 -66 0
-46 -66 0
-47 -66 0
-48 -66 0
-49 -66 0
-50 -66 0
-51 -66 0
-52 -66 0
-53 -66 0
-54 -66 0
-55 -66 0
-24 25 -26 27 28 29 30 31 32 33 34 35 36 37 38 39 40 41 42 43 44 45 46 47 48 49 50 51 52 53 54 55 66 0
-17 -66 -67 0
17 66 -67 0
-17 66 67 0
17 -66 67 0
-67 0
-24 -68 0
25 -68 0
26 -68 0
-27 -68 0
-28 -68 0
-29 -68 0
-30 -68 0
-31 -68 0
-32 -68 0
-33 -68 0
-34 -68 0
-35 -68 0
-36 -68 0
-37 -68 0
-38 -68 0
-39 -68 0
-40 -68 0
-41 -68 0
-42 -68 0
-43 -68 0
-44 -68 0
-45 -68 0
-46 -68 0
-47 -68 0
-48 -68 0
-49 -68 0
-50 -68 0
-51 -68 0
-52 -68 0
-53 -68 0
-54 -68 0
-55 -68 0
24 -25 -26 27 28 29 30 31 32 33 34 35 36 37 38 39 40 41 42 43 44 45 46 47 48 49 50 51 52 53 54 55 68 0
-20 -68 -69 0
20 68 -69 0
-20 68 69 0
20 -68 69 0
-69 0
-17 -70 0
20 -70 0
17 -20 70 0
-17 71 0
-20 71 0
17 20 -71 0
-14 -72 0
17 -72 0
14 -17 72 0
-14 -73 0
70 -73 0
14 -70 73 0
-14 74 0
-71 74 0
14 71 -74 0
-11 75 0
-72 75 0
11 72 -75 0
-11 76 0
-73 76 0
11 73 -76 0
-11 -77 0
74 -77 0
11 -74 77 0
-8 -78 0
75 -78 0
8 -75 78 0
-8 79 0
-76 79 0
8 76 -79 0
-8 -80 0
77 -80 0
8 -77 80 0
-5 81 0
-78 81 0
5 78 -81 0
-5 -82 0
79 -82 0
5 -79 82 0
-5 -83 0
80 -83 0
5 -80 83 0
-4 -1 0
81 -1 0
4 -81 1 0
-4 -2 0
82 -2 0
4 -82 2 0
-4 -3 0
83 -3 0
4 -83 3 0
24 -148 0
-24 148 0
25 -149 0
-25 149 0
26 -150 0
-26 150 0
27 -151 0
-27 151 0
28 -152 0
-28 152 0
29 -153 0
-29 153 0
30 -154 0
-30 154 0
31 -155 0
-31 155 0
32 -156 0
-32 156 0
33 -157 0
-33 157 0
34 -158 0
-34 158 0
35 -159 0
-35 159 0
36 -160 0
-36 160 0
37 -161 0
-37 161 0
38 -162 0
-38 162 0
39 -163 0
-39 163 0
40 -164 0
-40 164 0
41 -165 0
-41 165 0
42 -166 0
-42 166 0
43 -167 0
-43 167 0
44 -168 0
-44 168 0
45 -169 0
-45 169 0
46 -170 0
-46 170 0
47 -171 0
-47 171 0
48 -172 0
-48 172 0
49 -173 0
-49 173 0
50 -174 0
-50 174 0
51 -175 0
-51 175 0
52 -176 0
-52 176 0
53 -177 0
-53 177 0
54 -178 0
-54 178 0
55 -179 0
-55 179 0
-180 -182 -184 0
180 182 -184 0
-180 182 184 0
180 -182 184 0
-181 -183 -185 0
181 183 -185 0
-181 183 185 0
181 -183 185 0
-184 -186 0
-185 -186 0
184 185 186 0
-23 186 0
23 -186 0
c __CPROVER_malloc_is_new_array#1 FALSE
c goto_symex::\guard#1 4
c goto_symex::\guard#2 5
c goto_symex::\guard#3 8
c goto_symex::\guard#4 11
c goto_symex::\guard#5 14
c goto_symex::\guard#6 17
c goto_symex::\guard#7 20
c symex::io::0 148 149 150 151 152 153 154 155 156 157 158 159 160 161 162 163 164 165 166 167 168 169 170 171 172 173 174 175 176 177 178 179
c implicit::1::output!0@1#1 116 117 118 119 120 121 122 123 124 125 126 127 128 129 130 131 132 133 134 135 136 137 138 139 140 141 142 143 144 145 146 147
c implicit::1::__return_value!0@1#1 84 85 86 87 88 89 90 91 92 93 94 95 96 97 98 99 100 101 102 103 104 105 106 107 108 109 110 111 112 113 114 115
c implicit::1::output!0@1#20 72 73 74 FALSE FALSE FALSE FALSE FALSE FALSE FALSE FALSE FALSE FALSE FALSE FALSE FALSE FALSE FALSE FALSE FALSE FALSE FALSE FALSE FALSE FALSE FALSE FALSE FALSE FALSE FALSE FALSE FALSE
c implicit::1::output!0@1#18 FALSE 20 20 FALSE FALSE FALSE FALSE FALSE FALSE FALSE FALSE FALSE FALSE FALSE FALSE FALSE FALSE FALSE FALSE FALSE FALSE FALSE FALSE FALSE FALSE FALSE FALSE FALSE FALSE FALSE FALSE FALSE
c implicit::1::output!0@1#16 FALSE FALSE FALSE FALSE FALSE FALSE FALSE FALSE FALSE FALSE FALSE FALSE FALSE FALSE FALSE FALSE FALSE FALSE FALSE FALSE FALSE FALSE FALSE FALSE FALSE FALSE FALSE FALSE FALSE FALSE FALSE FALSE
c implicit::1::output!0@1#15 FALSE TRUE TRUE FALSE FALSE FALSE FALSE FALSE FALSE FALSE FALSE FALSE FALSE FALSE FALSE FALSE FALSE FALSE FALSE FALSE FALSE FALSE FALSE FALSE FALSE FALSE FALSE FALSE FALSE FALSE FALSE FALSE
c implicit::1::output!0@1#14 FALSE FALSE FALSE FALSE FALSE FALSE FALSE FALSE FALSE FALSE FALSE FALSE FALSE FALSE FALSE FALSE FALSE FALSE FALSE FALSE FALSE FALSE FALSE FALSE FALSE FALSE FALSE FALSE FALSE FALSE FALSE FALSE
c implicit::1::output!0@1#13 TRUE FALSE TRUE FALSE FALSE FALSE FALSE FALSE FALSE FALSE FALSE FALSE FALSE FALSE FALSE FALSE FALSE FALSE FALSE FALSE FALSE FALSE FALSE FALSE FALSE FALSE FALSE FALSE FALSE FALSE FALSE FALSE
c __CPROVER_thread_id!0#1 FALSE FALSE FALSE FALSE FALSE FALSE FALSE FALSE FALSE FALSE FALSE FALSE FALSE FALSE FALSE FALSE FALSE FALSE FALSE FALSE FALSE FALSE FALSE FALSE FALSE FALSE FALSE FALSE FALSE FALSE FALSE FALSE
c __CPROVER_rounding_mode!0#1 FALSE FALSE FALSE FALSE FALSE FALSE FALSE FALSE FALSE FALSE FALSE FALSE FALSE FALSE FALSE FALSE FALSE FALSE FALSE FALSE FALSE FALSE FALSE FALSE FALSE FALSE FALSE FALSE FALSE FALSE FALSE FALSE
c implicit::1::output!0@1#7 FALSE TRUE FALSE FALSE FALSE FALSE FALSE FALSE FALSE FALSE FALSE FALSE FALSE FALSE FALSE FALSE FALSE FALSE FALSE FALSE FALSE FALSE FALSE FALSE FALSE FALSE FALSE FALSE FALSE FALSE FALSE FALSE
c implicit::1::__return_value!0@1#2 1 2 3 FALSE FALSE FALSE FALSE FALSE FALSE FALSE FALSE FALSE FALSE FALSE FALSE FALSE FALSE FALSE FALSE FALSE FALSE FALSE FALSE FALSE FALSE FALSE FALSE FALSE FALSE FALSE FALSE FALSE
c __CPROVER_pipe_count#1 FALSE FALSE FALSE FALSE FALSE FALSE FALSE FALSE FALSE FALSE FALSE FALSE FALSE FALSE FALSE FALSE FALSE FALSE FALSE FALSE FALSE FALSE FALSE FALSE FALSE FALSE FALSE FALSE FALSE FALSE FALSE FALSE
c implicit::1::output!0@1#6 FALSE FALSE FALSE FALSE FALSE FALSE FALSE FALSE FALSE FALSE FALSE FALSE FALSE FALSE FALSE FALSE FALSE FALSE FALSE FALSE FALSE FALSE FALSE FALSE FALSE FALSE FALSE FALSE FALSE FALSE FALSE FALSE
c implicit::1::output!0@1#24 1 2 3 FALSE FALSE FALSE FALSE FALSE FALSE FALSE FALSE FALSE FALSE FALSE FALSE FALSE FALSE FALSE FALSE FALSE FALSE FALSE FALSE FALSE FALSE FALSE FALSE FALSE FALSE FALSE FALSE FALSE
c __CPROVER_next_thread_id#1 FALSE FALSE FALSE FALSE FALSE FALSE FALSE FALSE FALSE FALSE FALSE FALSE FALSE FALSE FALSE FALSE FALSE FALSE FALSE FALSE FALSE FALSE FALSE FALSE FALSE FALSE FALSE FALSE FALSE FALSE FALSE FALSE
c implicit::1::output!0@1#5 TRUE FALSE FALSE FALSE FALSE FALSE FALSE FALSE FALSE FALSE FALSE FALSE FALSE FALSE FALSE FALSE FALSE FALSE FALSE FALSE FALSE FALSE FALSE FALSE FALSE FALSE FALSE FALSE FALSE FALSE FALSE FALSE
c implicit::1::output!0@1#23 81 82 83 FALSE FALSE FALSE FALSE FALSE FALSE FALSE FALSE FALSE FALSE FALSE FALSE FALSE FALSE FALSE FALSE FALSE FALSE FALSE FALSE FALSE FALSE FALSE FALSE FALSE FALSE FALSE FALSE FALSE
c __CPROVER_memory_leak#1 FALSE FALSE FALSE FALSE FALSE FALSE FALSE FALSE FALSE FALSE FALSE FALSE FALSE FALSE FALSE FALSE FALSE FALSE FALSE FALSE FALSE FALSE FALSE FALSE FALSE FALSE FALSE FALSE FALSE FALSE FALSE FALSE
c implicit::1::output!0@1#17 FALSE FALSE FALSE FALSE FALSE FALSE FALSE FALSE FALSE FALSE FALSE FALSE FALSE FALSE FALSE FALSE FALSE FALSE FALSE FALSE FALSE FALSE FALSE FALSE FALSE FALSE FALSE FALSE FALSE FALSE FALSE FALSE
c __CPROVER_dead_object#1 FALSE FALSE FALSE FALSE FALSE FALSE FALSE FALSE FALSE FALSE FALSE FALSE FALSE FALSE FALSE FALSE FALSE FALSE FALSE FALSE FALSE FALSE FALSE FALSE FALSE FALSE FALSE FALSE FALSE FALSE FALSE FALSE
c implicit::1::output!0@1#22 78 79 80 FALSE FALSE FALSE FALSE FALSE FALSE FALSE FALSE FALSE FALSE FALSE FALSE FALSE FALSE FALSE FALSE FALSE FALSE FALSE FALSE FALSE FALSE FALSE FALSE FALSE FALSE FALSE FALSE FALSE
c __CPROVER_malloc_size#1 FALSE FALSE FALSE FALSE FALSE FALSE FALSE FALSE FALSE FALSE FALSE FALSE FALSE FALSE FALSE FALSE FALSE FALSE FALSE FALSE FALSE FALSE FALSE FALSE FALSE FALSE FALSE FALSE FALSE FALSE FALSE FALSE
c implicit::1::output!0@1#4 FALSE FALSE FALSE FALSE FALSE FALSE FALSE FALSE FALSE FALSE FALSE FALSE FALSE FALSE FALSE FALSE FALSE FALSE FALSE FALSE FALSE FALSE FALSE FALSE FALSE FALSE FALSE FALSE FALSE FALSE FALSE FALSE
c implicit::1::output!0@1#19 17 70 71 FALSE FALSE FALSE FALSE FALSE FALSE FALSE FALSE FALSE FALSE FALSE FALSE FALSE FALSE FALSE FALSE FALSE FALSE FALSE FALSE FALSE FALSE FALSE FALSE FALSE FALSE FALSE FALSE FALSE
c __CPROVER_deallocated#1 FALSE FALSE FALSE FALSE FALSE FALSE FALSE FALSE FALSE FALSE FALSE FALSE FALSE FALSE FALSE FALSE FALSE FALSE FALSE FALSE FALSE FALSE FALSE FALSE FALSE FALSE FALSE FALSE FALSE FALSE FALSE FALSE
c implicit::1::output!0@1#2 FALSE FALSE FALSE FALSE FALSE FALSE FALSE FALSE FALSE FALSE FALSE FALSE FALSE FALSE FALSE FALSE FALSE FALSE FALSE FALSE FALSE FALSE FALSE FALSE FALSE FALSE FALSE FALSE FALSE FALSE FALSE FALSE
c _start::input!0#1 24 25 26 27 28 29 30 31 32 33 34 35 36 37 38 39 40 41 42 43 44 45 46 47 48 49 50 51 52 53 54 55
c implicit::1::output!0@1#21 75 76 77 FALSE FALSE FALSE FALSE FALSE FALSE FALSE FALSE FALSE FALSE FALSE FALSE FALSE FALSE FALSE FALSE FALSE FALSE FALSE FALSE FALSE FALSE FALSE FALSE FALSE FALSE FALSE FALSE FALSE
c __CPROVER_malloc_object#1 FALSE FALSE FALSE FALSE FALSE FALSE FALSE FALSE FALSE FALSE FALSE FALSE FALSE FALSE FALSE FALSE FALSE FALSE FALSE FALSE FALSE FALSE FALSE FALSE FALSE FALSE FALSE FALSE FALSE FALSE FALSE FALSE
c implicit::1::output!0@1#3 FALSE FALSE FALSE FALSE FALSE FALSE FALSE FALSE FALSE FALSE FALSE FALSE FALSE FALSE FALSE FALSE FALSE FALSE FALSE FALSE FALSE FALSE FALSE FALSE FALSE FALSE FALSE FALSE FALSE FALSE FALSE FALSE
c implicit::input!0@1#1 24 25 26 27 28 29 30 31 32 33 34 35 36 37 38 39 40 41 42 43 44 45 46 47 48 49 50 51 52 53 54 55
c implicit::1::output!0@1#8 FALSE FALSE FALSE FALSE FALSE FALSE FALSE FALSE FALSE FALSE FALSE FALSE FALSE FALSE FALSE FALSE FALSE FALSE FALSE FALSE FALSE FALSE FALSE FALSE FALSE FALSE FALSE FALSE FALSE FALSE FALSE FALSE
c implicit::1::output!0@1#9 TRUE TRUE FALSE FALSE FALSE FALSE FALSE FALSE FALSE FALSE FALSE FALSE FALSE FALSE FALSE FALSE FALSE FALSE FALSE FALSE FALSE FALSE FALSE FALSE FALSE FALSE FALSE FALSE FALSE FALSE FALSE FALSE
c implicit::1::output!0@1#10 FALSE FALSE FALSE FALSE FALSE FALSE FALSE FALSE FALSE FALSE FALSE FALSE FALSE FALSE FALSE FALSE FALSE FALSE FALSE FALSE FALSE FALSE FALSE FALSE FALSE FALSE FALSE FALSE FALSE FALSE FALSE FALSE
c implicit::1::output!0@1#11 FALSE FALSE TRUE FALSE FALSE FALSE FALSE FALSE FALSE FALSE FALSE FALSE FALSE FALSE FALSE FALSE FALSE FALSE FALSE FALSE FALSE FALSE FALSE FALSE FALSE FALSE FALSE FALSE FALSE FALSE FALSE FALSE
c implicit::1::output!0@1#12 FALSE FALSE FALSE FALSE FALSE FALSE FALSE FALSE FALSE FALSE FALSE FALSE FALSE FALSE FALSE FALSE FALSE FALSE FALSE FALSE FALSE FALSE FALSE FALSE FALSE FALSE FALSE FALSE FALSE FALSE FALSE FALSE
c ind 1 2 3 0
cr 1 2 3
